Minimize
  0.07884 Gkl_16 + 0.21024 Gkl_17 + 0.15768 Gkl_18 + 0 Rk1_19 + 0 Rk1_20
   + 0 Rk1_21 + 0 Rk1_22 + 0 Rk1_23 + 0 Rk1_24 + 0 Rk1_25 + 0 Rk1_26
   + 0 Rk1_27 + 0 Rk1_28 + 0 Rk1_29 + 0 Rk1_30 + 2 I_45 + I_46 + 3.5 I_47
   + 1.5 I_48 + I_49 + 2 I_50 + 2 I_51 + 3 I_52 + 0.0716727272727273 Gkl_69
   + 0.1911272727272728 Gkl_70 + 0.1433454545454546 Gkl_71 + 0 Rk1_72
   + 0 Rk1_73 + 0 Rk1_74 + 0 Rk1_75 + 0 Rk1_76 + 0 Rk1_77 + 0 Rk1_78
   + 0 Rk1_79 + 0 Rk1_80 + 0 Rk1_81 + 0 Rk1_82 + 0 Rk1_83
   + 1.818181818181818 I_98 + 0.9090909090909091 I_99
   + 3.181818181818182 I_100 + 1.363636363636364 I_101
   + 0.9090909090909091 I_102 + 1.818181818181818 I_103
   + 1.818181818181818 I_104 + 2.727272727272727 I_105
   + 0.0651570247933884 Gkl_122 + 0.1737520661157024 Gkl_123
   + 0.1303140495867768 Gkl_124 + 0 Rk1_125 + 0 Rk1_126 + 0 Rk1_127
   + 0 Rk1_128 + 0 Rk1_129 + 0 Rk1_130 + 0 Rk1_131 + 0 Rk1_132 + 0 Rk1_133
   + 0 Rk1_134 + 0 Rk1_135 + 0 Rk1_136 + 1.652892561983471 I_151
   + 0.8264462809917354 I_152 + 2.892561983471074 I_153
   + 1.239669421487603 I_154 + 0.8264462809917354 I_155
   + 1.652892561983471 I_156 + 1.652892561983471 I_157
   + 2.479338842975206 I_158 + 0.0592336589030804 Gkl_175
   + 0.1579564237415476 Gkl_176 + 0.1184673178061607 Gkl_177 + 0 Rk1_178
   + 0 Rk1_179 + 0 Rk1_180 + 0 Rk1_181 + 0 Rk1_182 + 0 Rk1_183 + 0 Rk1_184
   + 0 Rk1_185 + 0 Rk1_186 + 0 Rk1_187 + 0 Rk1_188 + 0 Rk1_189
   + 1.502629601803155 I_204 + 0.7513148009015775 I_205
   + 2.629601803155521 I_206 + 1.126972201352366 I_207
   + 0.7513148009015775 I_208 + 1.502629601803155 I_209
   + 1.502629601803155 I_210 + 2.253944402704732 I_211
   + 0.0538487808209822 Gkl_228 + 0.1435967488559524 Gkl_229
   + 0.1076975616419643 Gkl_230 + 0 Rk1_231 + 0 Rk1_232 + 0 Rk1_233
   + 0 Rk1_234 + 0 Rk1_235 + 0 Rk1_236 + 0 Rk1_237 + 0 Rk1_238 + 0 Rk1_239
   + 0 Rk1_240 + 0 Rk1_241 + 0 Rk1_242 + 1.366026910730141 I_257
   + 0.6830134553650705 I_258 + 2.390547093777747 I_259
   + 1.024520183047606 I_260 + 0.6830134553650705 I_261
   + 1.366026910730141 I_262 + 1.366026910730141 I_263
   + 2.049040366095212 I_264
Subject To
 R0: Fkl_0 - Fkl_3 - Fkl_7 - Gkl_16 - Gk_ts_37 + Gk_ts_40 + Gk_ts_44 = -0
 R1: - Fkl_0 + Fkl_1 + Gk_ts_37 - Gk_ts_38 = -40
 R2: - Fkl_1 + Fkl_2 + Fkl_3 - Gkl_17 + Gk_ts_38 - Gk_ts_39 - Gk_ts_40
   = -60
 R3: - Fkl_4 + Fkl_6 - Gkl_18 + Gk_ts_41 - Gk_ts_43 = -0
 R4: - Fkl_5 - Fkl_6 + Fkl_7 + Gk_ts_42 + Gk_ts_43 - Gk_ts_44 = -165
 R5: - Fkl_2 + Fkl_4 + Fkl_5 + Gk_ts_39 - Gk_ts_41 - Gk_ts_42 = -0
 R6: Fkl_53 - Fkl_56 - Fkl_60 - Gkl_69 - Gk_ts_90 + Gk_ts_93 + Gk_ts_97
   = -0
 R7: - Fkl_53 + Fkl_54 + Gk_ts_90 - Gk_ts_91 = -40.4
 R8: - Fkl_54 + Fkl_55 + Fkl_56 - Gkl_70 + Gk_ts_91 - Gk_ts_92 - Gk_ts_93
   = -60.6
 R9: - Fkl_57 + Fkl_59 - Gkl_71 + Gk_ts_94 - Gk_ts_96 = -0
 R10: - Fkl_58 - Fkl_59 + Fkl_60 + Gk_ts_95 + Gk_ts_96 - Gk_ts_97
   = -166.65
 R11: - Fkl_55 + Fkl_57 + Fkl_58 + Gk_ts_92 - Gk_ts_94 - Gk_ts_95 = -0
 R12: Fkl_106 - Fkl_109 - Fkl_113 - Gkl_122 - Gk_ts_143 + Gk_ts_146
   + Gk_ts_150 = -0
 R13: - Fkl_106 + Fkl_107 + Gk_ts_143 - Gk_ts_144 = -40.804
 R14: - Fkl_107 + Fkl_108 + Fkl_109 - Gkl_123 + Gk_ts_144 - Gk_ts_145
   - Gk_ts_146 = -61.206
 R15: - Fkl_110 + Fkl_112 - Gkl_124 + Gk_ts_147 - Gk_ts_149 = -0
 R16: - Fkl_111 - Fkl_112 + Fkl_113 + Gk_ts_148 + Gk_ts_149 - Gk_ts_150
   = -168.3165
 R17: - Fkl_108 + Fkl_110 + Fkl_111 + Gk_ts_145 - Gk_ts_147 - Gk_ts_148
   = -0
 R18: Fkl_159 - Fkl_162 - Fkl_166 - Gkl_175 - Gk_ts_196 + Gk_ts_199
   + Gk_ts_203 = -0
 R19: - Fkl_159 + Fkl_160 + Gk_ts_196 - Gk_ts_197 = -41.21204
 R20: - Fkl_160 + Fkl_161 + Fkl_162 - Gkl_176 + Gk_ts_197 - Gk_ts_198
   - Gk_ts_199 = -61.81806000000001
 R21: - Fkl_163 + Fkl_165 - Gkl_177 + Gk_ts_200 - Gk_ts_202 = -0
 R22: - Fkl_164 - Fkl_165 + Fkl_166 + Gk_ts_201 + Gk_ts_202 - Gk_ts_203
   = -169.999665
 R23: - Fkl_161 + Fkl_163 + Fkl_164 + Gk_ts_198 - Gk_ts_200 - Gk_ts_201
   = -0
 R24: Fkl_212 - Fkl_215 - Fkl_219 - Gkl_228 - Gk_ts_249 + Gk_ts_252
   + Gk_ts_256 = -0
 R25: - Fkl_212 + Fkl_213 + Gk_ts_249 - Gk_ts_250 = -41.6241604
 R26: - Fkl_213 + Fkl_214 + Fkl_215 - Gkl_229 + Gk_ts_250 - Gk_ts_251
   - Gk_ts_252 = -62.4362406
 R27: - Fkl_216 + Fkl_218 - Gkl_230 + Gk_ts_253 - Gk_ts_255 = -0
 R28: - Fkl_217 - Fkl_218 + Fkl_219 + Gk_ts_254 + Gk_ts_255 - Gk_ts_256
   = -171.69966165
 R29: - Fkl_214 + Fkl_216 + Fkl_217 + Gk_ts_251 - Gk_ts_253 - Gk_ts_254
   = -0
 R30: Xkl_8 - I_45 = 0
 R31: Xkl_9 - I_46 = 0
 R32: Xkl_10 - I_47 = 0
 R33: Xkl_11 - I_48 = 0
 R34: Xkl_12 - I_49 = 0
 R35: Xkl_13 - I_50 = 0
 R36: Xkl_14 - I_51 = 0
 R37: Xkl_15 - I_52 = 0
 R38: - Xkl_8 + Xkl_61 - I_98 = 0
 R39: - Xkl_9 + Xkl_62 - I_99 = 0
 R40: - Xkl_10 + Xkl_63 - I_100 = 0
 R41: - Xkl_11 + Xkl_64 - I_101 = 0
 R42: - Xkl_12 + Xkl_65 - I_102 = 0
 R43: - Xkl_13 + Xkl_66 - I_103 = 0
 R44: - Xkl_14 + Xkl_67 - I_104 = 0
 R45: - Xkl_15 + Xkl_68 - I_105 = 0
 R46: - Xkl_61 + Xkl_114 - I_151 = 0
 R47: - Xkl_62 + Xkl_115 - I_152 = 0
 R48: - Xkl_63 + Xkl_116 - I_153 = 0
 R49: - Xkl_64 + Xkl_117 - I_154 = 0
 R50: - Xkl_65 + Xkl_118 - I_155 = 0
 R51: - Xkl_66 + Xkl_119 - I_156 = 0
 R52: - Xkl_67 + Xkl_120 - I_157 = 0
 R53: - Xkl_68 + Xkl_121 - I_158 = 0
 R54: - Xkl_114 + Xkl_167 - I_204 = 0
 R55: - Xkl_115 + Xkl_168 - I_205 = 0
 R56: - Xkl_116 + Xkl_169 - I_206 = 0
 R57: - Xkl_117 + Xkl_170 - I_207 = 0
 R58: - Xkl_118 + Xkl_171 - I_208 = 0
 R59: - Xkl_119 + Xkl_172 - I_209 = 0
 R60: - Xkl_120 + Xkl_173 - I_210 = 0
 R61: - Xkl_121 + Xkl_174 - I_211 = 0
 R62: - Xkl_167 + Xkl_220 - I_257 = 0
 R63: - Xkl_168 + Xkl_221 - I_258 = 0
 R64: - Xkl_169 + Xkl_222 - I_259 = 0
 R65: - Xkl_170 + Xkl_223 - I_260 = 0
 R66: - Xkl_171 + Xkl_224 - I_261 = 0
 R67: - Xkl_172 + Xkl_225 - I_262 = 0
 R68: - Xkl_173 + Xkl_226 - I_263 = 0
 R69: - Xkl_174 + Xkl_227 - I_264 = 0
 R70: - Xkl_8 <= 0
 R71: - Xkl_9 <= 0
 R72: - Xkl_10 <= 0
 R73: - Xkl_11 <= 0
 R74: - Xkl_12 <= 0
 R75: - Xkl_13 <= 0
 R76: - Xkl_14 <= 0
 R77: - Xkl_15 <= 0
 R78: Xkl_8 - Xkl_61 <= 0
 R79: Xkl_9 - Xkl_62 <= 0
 R80: Xkl_10 - Xkl_63 <= 0
 R81: Xkl_11 - Xkl_64 <= 0
 R82: Xkl_12 - Xkl_65 <= 0
 R83: Xkl_13 - Xkl_66 <= 0
 R84: Xkl_14 - Xkl_67 <= 0
 R85: Xkl_15 - Xkl_68 <= 0
 R86: Xkl_61 - Xkl_114 <= 0
 R87: Xkl_62 - Xkl_115 <= 0
 R88: Xkl_63 - Xkl_116 <= 0
 R89: Xkl_64 - Xkl_117 <= 0
 R90: Xkl_65 - Xkl_118 <= 0
 R91: Xkl_66 - Xkl_119 <= 0
 R92: Xkl_67 - Xkl_120 <= 0
 R93: Xkl_68 - Xkl_121 <= 0
 R94: Xkl_114 - Xkl_167 <= 0
 R95: Xkl_115 - Xkl_168 <= 0
 R96: Xkl_116 - Xkl_169 <= 0
 R97: Xkl_117 - Xkl_170 <= 0
 R98: Xkl_118 - Xkl_171 <= 0
 R99: Xkl_119 - Xkl_172 <= 0
 R100: Xkl_120 - Xkl_173 <= 0
 R101: Xkl_121 - Xkl_174 <= 0
 R102: Xkl_167 - Xkl_220 <= 0
 R103: Xkl_168 - Xkl_221 <= 0
 R104: Xkl_169 - Xkl_222 <= 0
 R105: Xkl_170 - Xkl_223 <= 0
 R106: Xkl_171 - Xkl_224 <= 0
 R107: Xkl_172 - Xkl_225 <= 0
 R108: Xkl_173 - Xkl_226 <= 0
 R109: Xkl_174 - Xkl_227 <= 0
 R110: Fkl_0 + 70000 Xkl_8 - 5 Rk2_31 + 5 Rk2_32 <= 70000
 R111: - Fkl_0 + 70000 Xkl_8 + 5 Rk2_31 - 5 Rk2_32 <= 70000
 R112: Fkl_1 + 70000 Xkl_9 - 10 Rk2_32 + 10 Rk2_33 <= 70000
 R113: - Fkl_1 + 70000 Xkl_9 + 10 Rk2_32 - 10 Rk2_33 <= 70000
 R114: Fkl_2 + 70000 Xkl_10 - 2.857142857142857 Rk2_33
   + 2.857142857142857 Rk2_36 <= 70000
 R115: - Fkl_2 + 70000 Xkl_10 + 2.857142857142857 Rk2_33
   - 2.857142857142857 Rk2_36 <= 70000
 R116: Fkl_3 + 70000 Xkl_11 + 6.666666666666667 Rk2_31
   - 6.666666666666667 Rk2_33 <= 70000
 R117: - Fkl_3 + 70000 Xkl_11 - 6.666666666666667 Rk2_31
   + 6.666666666666667 Rk2_33 <= 70000
 R118: Fkl_4 + 70000 Xkl_12 + 10 Rk2_34 - 10 Rk2_36 <= 70000
 R119: - Fkl_4 + 70000 Xkl_12 - 10 Rk2_34 + 10 Rk2_36 <= 70000
 R120: Fkl_5 + 70000 Xkl_13 + 5 Rk2_35 - 5 Rk2_36 <= 70000
 R121: - Fkl_5 + 70000 Xkl_13 - 5 Rk2_35 + 5 Rk2_36 <= 70000
 R122: Fkl_6 + 70000 Xkl_14 - 5 Rk2_34 + 5 Rk2_35 <= 70000
 R123: - Fkl_6 + 70000 Xkl_14 + 5 Rk2_34 - 5 Rk2_35 <= 70000
 R124: Fkl_7 + 70000 Xkl_15 + 3.333333333333333 Rk2_31
   - 3.333333333333333 Rk2_35 <= 70000
 R125: - Fkl_7 + 70000 Xkl_15 - 3.333333333333333 Rk2_31
   + 3.333333333333333 Rk2_35 <= 70000
 R126: Fkl_53 + 70000 Xkl_61 - 5 Rk2_84 + 5 Rk2_85 <= 70000
 R127: - Fkl_53 + 70000 Xkl_61 + 5 Rk2_84 - 5 Rk2_85 <= 70000
 R128: Fkl_54 + 70000 Xkl_62 - 10 Rk2_85 + 10 Rk2_86 <= 70000
 R129: - Fkl_54 + 70000 Xkl_62 + 10 Rk2_85 - 10 Rk2_86 <= 70000
 R130: Fkl_55 + 70000 Xkl_63 - 2.857142857142857 Rk2_86
   + 2.857142857142857 Rk2_89 <= 70000
 R131: - Fkl_55 + 70000 Xkl_63 + 2.857142857142857 Rk2_86
   - 2.857142857142857 Rk2_89 <= 70000
 R132: Fkl_56 + 70000 Xkl_64 + 6.666666666666667 Rk2_84
   - 6.666666666666667 Rk2_86 <= 70000
 R133: - Fkl_56 + 70000 Xkl_64 - 6.666666666666667 Rk2_84
   + 6.666666666666667 Rk2_86 <= 70000
 R134: Fkl_57 + 70000 Xkl_65 + 10 Rk2_87 - 10 Rk2_89 <= 70000
 R135: - Fkl_57 + 70000 Xkl_65 - 10 Rk2_87 + 10 Rk2_89 <= 70000
 R136: Fkl_58 + 70000 Xkl_66 + 5 Rk2_88 - 5 Rk2_89 <= 70000
 R137: - Fkl_58 + 70000 Xkl_66 - 5 Rk2_88 + 5 Rk2_89 <= 70000
 R138: Fkl_59 + 70000 Xkl_67 - 5 Rk2_87 + 5 Rk2_88 <= 70000
 R139: - Fkl_59 + 70000 Xkl_67 + 5 Rk2_87 - 5 Rk2_88 <= 70000
 R140: Fkl_60 + 70000 Xkl_68 + 3.333333333333333 Rk2_84
   - 3.333333333333333 Rk2_88 <= 70000
 R141: - Fkl_60 + 70000 Xkl_68 - 3.333333333333333 Rk2_84
   + 3.333333333333333 Rk2_88 <= 70000
 R142: Fkl_106 + 70000 Xkl_114 - 5 Rk2_137 + 5 Rk2_138 <= 70000
 R143: - Fkl_106 + 70000 Xkl_114 + 5 Rk2_137 - 5 Rk2_138 <= 70000
 R144: Fkl_107 + 70000 Xkl_115 - 10 Rk2_138 + 10 Rk2_139 <= 70000
 R145: - Fkl_107 + 70000 Xkl_115 + 10 Rk2_138 - 10 Rk2_139 <= 70000
 R146: Fkl_108 + 70000 Xkl_116 - 2.857142857142857 Rk2_139
   + 2.857142857142857 Rk2_142 <= 70000
 R147: - Fkl_108 + 70000 Xkl_116 + 2.857142857142857 Rk2_139
   - 2.857142857142857 Rk2_142 <= 70000
 R148: Fkl_109 + 70000 Xkl_117 + 6.666666666666667 Rk2_137
   - 6.666666666666667 Rk2_139 <= 70000
 R149: - Fkl_109 + 70000 Xkl_117 - 6.666666666666667 Rk2_137
   + 6.666666666666667 Rk2_139 <= 70000
 R150: Fkl_110 + 70000 Xkl_118 + 10 Rk2_140 - 10 Rk2_142 <= 70000
 R151: - Fkl_110 + 70000 Xkl_118 - 10 Rk2_140 + 10 Rk2_142 <= 70000
 R152: Fkl_111 + 70000 Xkl_119 + 5 Rk2_141 - 5 Rk2_142 <= 70000
 R153: - Fkl_111 + 70000 Xkl_119 - 5 Rk2_141 + 5 Rk2_142 <= 70000
 R154: Fkl_112 + 70000 Xkl_120 - 5 Rk2_140 + 5 Rk2_141 <= 70000
 R155: - Fkl_112 + 70000 Xkl_120 + 5 Rk2_140 - 5 Rk2_141 <= 70000
 R156: Fkl_113 + 70000 Xkl_121 + 3.333333333333333 Rk2_137
   - 3.333333333333333 Rk2_141 <= 70000
 R157: - Fkl_113 + 70000 Xkl_121 - 3.333333333333333 Rk2_137
   + 3.333333333333333 Rk2_141 <= 70000
 R158: Fkl_159 + 70000 Xkl_167 - 5 Rk2_190 + 5 Rk2_191 <= 70000
 R159: - Fkl_159 + 70000 Xkl_167 + 5 Rk2_190 - 5 Rk2_191 <= 70000
 R160: Fkl_160 + 70000 Xkl_168 - 10 Rk2_191 + 10 Rk2_192 <= 70000
 R161: - Fkl_160 + 70000 Xkl_168 + 10 Rk2_191 - 10 Rk2_192 <= 70000
 R162: Fkl_161 + 70000 Xkl_169 - 2.857142857142857 Rk2_192
   + 2.857142857142857 Rk2_195 <= 70000
 R163: - Fkl_161 + 70000 Xkl_169 + 2.857142857142857 Rk2_192
   - 2.857142857142857 Rk2_195 <= 70000
 R164: Fkl_162 + 70000 Xkl_170 + 6.666666666666667 Rk2_190
   - 6.666666666666667 Rk2_192 <= 70000
 R165: - Fkl_162 + 70000 Xkl_170 - 6.666666666666667 Rk2_190
   + 6.666666666666667 Rk2_192 <= 70000
 R166: Fkl_163 + 70000 Xkl_171 + 10 Rk2_193 - 10 Rk2_195 <= 70000
 R167: - Fkl_163 + 70000 Xkl_171 - 10 Rk2_193 + 10 Rk2_195 <= 70000
 R168: Fkl_164 + 70000 Xkl_172 + 5 Rk2_194 - 5 Rk2_195 <= 70000
 R169: - Fkl_164 + 70000 Xkl_172 - 5 Rk2_194 + 5 Rk2_195 <= 70000
 R170: Fkl_165 + 70000 Xkl_173 - 5 Rk2_193 + 5 Rk2_194 <= 70000
 R171: - Fkl_165 + 70000 Xkl_173 + 5 Rk2_193 - 5 Rk2_194 <= 70000
 R172: Fkl_166 + 70000 Xkl_174 + 3.333333333333333 Rk2_190
   - 3.333333333333333 Rk2_194 <= 70000
 R173: - Fkl_166 + 70000 Xkl_174 - 3.333333333333333 Rk2_190
   + 3.333333333333333 Rk2_194 <= 70000
 R174: Fkl_212 + 70000 Xkl_220 - 5 Rk2_243 + 5 Rk2_244 <= 70000
 R175: - Fkl_212 + 70000 Xkl_220 + 5 Rk2_243 - 5 Rk2_244 <= 70000
 R176: Fkl_213 + 70000 Xkl_221 - 10 Rk2_244 + 10 Rk2_245 <= 70000
 R177: - Fkl_213 + 70000 Xkl_221 + 10 Rk2_244 - 10 Rk2_245 <= 70000
 R178: Fkl_214 + 70000 Xkl_222 - 2.857142857142857 Rk2_245
   + 2.857142857142857 Rk2_248 <= 70000
 R179: - Fkl_214 + 70000 Xkl_222 + 2.857142857142857 Rk2_245
   - 2.857142857142857 Rk2_248 <= 70000
 R180: Fkl_215 + 70000 Xkl_223 + 6.666666666666667 Rk2_243
   - 6.666666666666667 Rk2_245 <= 70000
 R181: - Fkl_215 + 70000 Xkl_223 - 6.666666666666667 Rk2_243
   + 6.666666666666667 Rk2_245 <= 70000
 R182: Fkl_216 + 70000 Xkl_224 + 10 Rk2_246 - 10 Rk2_248 <= 70000
 R183: - Fkl_216 + 70000 Xkl_224 - 10 Rk2_246 + 10 Rk2_248 <= 70000
 R184: Fkl_217 + 70000 Xkl_225 + 5 Rk2_247 - 5 Rk2_248 <= 70000
 R185: - Fkl_217 + 70000 Xkl_225 - 5 Rk2_247 + 5 Rk2_248 <= 70000
 R186: Fkl_218 + 70000 Xkl_226 - 5 Rk2_246 + 5 Rk2_247 <= 70000
 R187: - Fkl_218 + 70000 Xkl_226 + 5 Rk2_246 - 5 Rk2_247 <= 70000
 R188: Fkl_219 + 70000 Xkl_227 + 3.333333333333333 Rk2_243
   - 3.333333333333333 Rk2_247 <= 70000
 R189: - Fkl_219 + 70000 Xkl_227 - 3.333333333333333 Rk2_243
   + 3.333333333333333 Rk2_247 <= 70000
 R190: Fkl_0 + 69850 Xkl_8 <= 70000
 R191: - Fkl_0 + 69850 Xkl_8 <= 70000
 R192: Fkl_1 + 69950 Xkl_9 <= 70000
 R193: - Fkl_1 + 69950 Xkl_9 <= 70000
 R194: Fkl_2 + 69945 Xkl_10 <= 70000
 R195: - Fkl_2 + 69945 Xkl_10 <= 70000
 R196: Fkl_3 + 69985 Xkl_11 <= 70000
 R197: - Fkl_3 + 69985 Xkl_11 <= 70000
 R198: Fkl_4 + 69880 Xkl_12 <= 70000
 R199: - Fkl_4 + 69880 Xkl_12 <= 70000
 R200: Fkl_5 + 69940 Xkl_13 <= 70000
 R201: - Fkl_5 + 69940 Xkl_13 <= 70000
 R202: Fkl_6 + 69930 Xkl_14 <= 70000
 R203: - Fkl_6 + 69930 Xkl_14 <= 70000
 R204: Fkl_7 + 69945 Xkl_15 <= 70000
 R205: - Fkl_7 + 69945 Xkl_15 <= 70000
 R206: Fkl_53 + 69850 Xkl_61 <= 70000
 R207: - Fkl_53 + 69850 Xkl_61 <= 70000
 R208: Fkl_54 + 69950 Xkl_62 <= 70000
 R209: - Fkl_54 + 69950 Xkl_62 <= 70000
 R210: Fkl_55 + 69945 Xkl_63 <= 70000
 R211: - Fkl_55 + 69945 Xkl_63 <= 70000
 R212: Fkl_56 + 69985 Xkl_64 <= 70000
 R213: - Fkl_56 + 69985 Xkl_64 <= 70000
 R214: Fkl_57 + 69880 Xkl_65 <= 70000
 R215: - Fkl_57 + 69880 Xkl_65 <= 70000
 R216: Fkl_58 + 69940 Xkl_66 <= 70000
 R217: - Fkl_58 + 69940 Xkl_66 <= 70000
 R218: Fkl_59 + 69930 Xkl_67 <= 70000
 R219: - Fkl_59 + 69930 Xkl_67 <= 70000
 R220: Fkl_60 + 69945 Xkl_68 <= 70000
 R221: - Fkl_60 + 69945 Xkl_68 <= 70000
 R222: Fkl_106 + 69850 Xkl_114 <= 70000
 R223: - Fkl_106 + 69850 Xkl_114 <= 70000
 R224: Fkl_107 + 69950 Xkl_115 <= 70000
 R225: - Fkl_107 + 69950 Xkl_115 <= 70000
 R226: Fkl_108 + 69945 Xkl_116 <= 70000
 R227: - Fkl_108 + 69945 Xkl_116 <= 70000
 R228: Fkl_109 + 69985 Xkl_117 <= 70000
 R229: - Fkl_109 + 69985 Xkl_117 <= 70000
 R230: Fkl_110 + 69880 Xkl_118 <= 70000
 R231: - Fkl_110 + 69880 Xkl_118 <= 70000
 R232: Fkl_111 + 69940 Xkl_119 <= 70000
 R233: - Fkl_111 + 69940 Xkl_119 <= 70000
 R234: Fkl_112 + 69930 Xkl_120 <= 70000
 R235: - Fkl_112 + 69930 Xkl_120 <= 70000
 R236: Fkl_113 + 69945 Xkl_121 <= 70000
 R237: - Fkl_113 + 69945 Xkl_121 <= 70000
 R238: Fkl_159 + 69850 Xkl_167 <= 70000
 R239: - Fkl_159 + 69850 Xkl_167 <= 70000
 R240: Fkl_160 + 69950 Xkl_168 <= 70000
 R241: - Fkl_160 + 69950 Xkl_168 <= 70000
 R242: Fkl_161 + 69945 Xkl_169 <= 70000
 R243: - Fkl_161 + 69945 Xkl_169 <= 70000
 R244: Fkl_162 + 69985 Xkl_170 <= 70000
 R245: - Fkl_162 + 69985 Xkl_170 <= 70000
 R246: Fkl_163 + 69880 Xkl_171 <= 70000
 R247: - Fkl_163 + 69880 Xkl_171 <= 70000
 R248: Fkl_164 + 69940 Xkl_172 <= 70000
 R249: - Fkl_164 + 69940 Xkl_172 <= 70000
 R250: Fkl_165 + 69930 Xkl_173 <= 70000
 R251: - Fkl_165 + 69930 Xkl_173 <= 70000
 R252: Fkl_166 + 69945 Xkl_174 <= 70000
 R253: - Fkl_166 + 69945 Xkl_174 <= 70000
 R254: Fkl_212 + 69850 Xkl_220 <= 70000
 R255: - Fkl_212 + 69850 Xkl_220 <= 70000
 R256: Fkl_213 + 69950 Xkl_221 <= 70000
 R257: - Fkl_213 + 69950 Xkl_221 <= 70000
 R258: Fkl_214 + 69945 Xkl_222 <= 70000
 R259: - Fkl_214 + 69945 Xkl_222 <= 70000
 R260: Fkl_215 + 69985 Xkl_223 <= 70000
 R261: - Fkl_215 + 69985 Xkl_223 <= 70000
 R262: Fkl_216 + 69880 Xkl_224 <= 70000
 R263: - Fkl_216 + 69880 Xkl_224 <= 70000
 R264: Fkl_217 + 69940 Xkl_225 <= 70000
 R265: - Fkl_217 + 69940 Xkl_225 <= 70000
 R266: Fkl_218 + 69930 Xkl_226 <= 70000
 R267: - Fkl_218 + 69930 Xkl_226 <= 70000
 R268: Fkl_219 + 69945 Xkl_227 <= 70000
 R269: - Fkl_219 + 69945 Xkl_227 <= 70000
 R270: Gkl_16 <= 150
 R271: - Gkl_16 <= -10
 R272: Gkl_17 <= 100
 R273: - Gkl_17 <= -0
 R274: Gkl_18 <= 200
 R275: - Gkl_18 <= -10
 R276: Gkl_69 <= 150
 R277: - Gkl_69 <= -10
 R278: Gkl_70 <= 100
 R279: - Gkl_70 <= -0
 R280: Gkl_71 <= 200
 R281: - Gkl_71 <= -10
 R282: Gkl_122 <= 150
 R283: - Gkl_122 <= -10
 R284: Gkl_123 <= 100
 R285: - Gkl_123 <= -0
 R286: Gkl_124 <= 200
 R287: - Gkl_124 <= -10
 R288: Gkl_175 <= 150
 R289: - Gkl_175 <= -10
 R290: Gkl_176 <= 100
 R291: - Gkl_176 <= -0
 R292: Gkl_177 <= 200
 R293: - Gkl_177 <= -10
 R294: Gkl_228 <= 150
 R295: - Gkl_228 <= -10
 R296: Gkl_229 <= 100
 R297: - Gkl_229 <= -0
 R298: Gkl_230 <= 200
 R299: - Gkl_230 <= -10
 R300: Fkl_0 - 70000 Xkl_8 - Gk_ts_37 <= 0
 R301: - Fkl_0 - 70000 Xkl_8 + Gk_ts_37 <= 0
 R302: Fkl_1 - 70000 Xkl_9 - Gk_ts_38 <= 0
 R303: - Fkl_1 - 70000 Xkl_9 + Gk_ts_38 <= 0
 R304: Fkl_2 - 70000 Xkl_10 - Gk_ts_39 <= 0
 R305: - Fkl_2 - 70000 Xkl_10 + Gk_ts_39 <= 0
 R306: Fkl_3 - 70000 Xkl_11 - Gk_ts_40 <= 0
 R307: - Fkl_3 - 70000 Xkl_11 + Gk_ts_40 <= 0
 R308: Fkl_4 - 70000 Xkl_12 - Gk_ts_41 <= 0
 R309: - Fkl_4 - 70000 Xkl_12 + Gk_ts_41 <= 0
 R310: Fkl_5 - 70000 Xkl_13 - Gk_ts_42 <= 0
 R311: - Fkl_5 - 70000 Xkl_13 + Gk_ts_42 <= 0
 R312: Fkl_6 - 70000 Xkl_14 - Gk_ts_43 <= 0
 R313: - Fkl_6 - 70000 Xkl_14 + Gk_ts_43 <= 0
 R314: Fkl_7 - 70000 Xkl_15 - Gk_ts_44 <= 0
 R315: - Fkl_7 - 70000 Xkl_15 + Gk_ts_44 <= 0
 R316: Fkl_53 - 70000 Xkl_61 - Gk_ts_90 <= 0
 R317: - Fkl_53 - 70000 Xkl_61 + Gk_ts_90 <= 0
 R318: Fkl_54 - 70000 Xkl_62 - Gk_ts_91 <= 0
 R319: - Fkl_54 - 70000 Xkl_62 + Gk_ts_91 <= 0
 R320: Fkl_55 - 70000 Xkl_63 - Gk_ts_92 <= 0
 R321: - Fkl_55 - 70000 Xkl_63 + Gk_ts_92 <= 0
 R322: Fkl_56 - 70000 Xkl_64 - Gk_ts_93 <= 0
 R323: - Fkl_56 - 70000 Xkl_64 + Gk_ts_93 <= 0
 R324: Fkl_57 - 70000 Xkl_65 - Gk_ts_94 <= 0
 R325: - Fkl_57 - 70000 Xkl_65 + Gk_ts_94 <= 0
 R326: Fkl_58 - 70000 Xkl_66 - Gk_ts_95 <= 0
 R327: - Fkl_58 - 70000 Xkl_66 + Gk_ts_95 <= 0
 R328: Fkl_59 - 70000 Xkl_67 - Gk_ts_96 <= 0
 R329: - Fkl_59 - 70000 Xkl_67 + Gk_ts_96 <= 0
 R330: Fkl_60 - 70000 Xkl_68 - Gk_ts_97 <= 0
 R331: - Fkl_60 - 70000 Xkl_68 + Gk_ts_97 <= 0
 R332: Fkl_106 - 70000 Xkl_114 - Gk_ts_143 <= 0
 R333: - Fkl_106 - 70000 Xkl_114 + Gk_ts_143 <= 0
 R334: Fkl_107 - 70000 Xkl_115 - Gk_ts_144 <= 0
 R335: - Fkl_107 - 70000 Xkl_115 + Gk_ts_144 <= 0
 R336: Fkl_108 - 70000 Xkl_116 - Gk_ts_145 <= 0
 R337: - Fkl_108 - 70000 Xkl_116 + Gk_ts_145 <= 0
 R338: Fkl_109 - 70000 Xkl_117 - Gk_ts_146 <= 0
 R339: - Fkl_109 - 70000 Xkl_117 + Gk_ts_146 <= 0
 R340: Fkl_110 - 70000 Xkl_118 - Gk_ts_147 <= 0
 R341: - Fkl_110 - 70000 Xkl_118 + Gk_ts_147 <= 0
 R342: Fkl_111 - 70000 Xkl_119 - Gk_ts_148 <= 0
 R343: - Fkl_111 - 70000 Xkl_119 + Gk_ts_148 <= 0
 R344: Fkl_112 - 70000 Xkl_120 - Gk_ts_149 <= 0
 R345: - Fkl_112 - 70000 Xkl_120 + Gk_ts_149 <= 0
 R346: Fkl_113 - 70000 Xkl_121 - Gk_ts_150 <= 0
 R347: - Fkl_113 - 70000 Xkl_121 + Gk_ts_150 <= 0
 R348: Fkl_159 - 70000 Xkl_167 - Gk_ts_196 <= 0
 R349: - Fkl_159 - 70000 Xkl_167 + Gk_ts_196 <= 0
 R350: Fkl_160 - 70000 Xkl_168 - Gk_ts_197 <= 0
 R351: - Fkl_160 - 70000 Xkl_168 + Gk_ts_197 <= 0
 R352: Fkl_161 - 70000 Xkl_169 - Gk_ts_198 <= 0
 R353: - Fkl_161 - 70000 Xkl_169 + Gk_ts_198 <= 0
 R354: Fkl_162 - 70000 Xkl_170 - Gk_ts_199 <= 0
 R355: - Fkl_162 - 70000 Xkl_170 + Gk_ts_199 <= 0
 R356: Fkl_163 - 70000 Xkl_171 - Gk_ts_200 <= 0
 R357: - Fkl_163 - 70000 Xkl_171 + Gk_ts_200 <= 0
 R358: Fkl_164 - 70000 Xkl_172 - Gk_ts_201 <= 0
 R359: - Fkl_164 - 70000 Xkl_172 + Gk_ts_201 <= 0
 R360: Fkl_165 - 70000 Xkl_173 - Gk_ts_202 <= 0
 R361: - Fkl_165 - 70000 Xkl_173 + Gk_ts_202 <= 0
 R362: Fkl_166 - 70000 Xkl_174 - Gk_ts_203 <= 0
 R363: - Fkl_166 - 70000 Xkl_174 + Gk_ts_203 <= 0
 R364: Fkl_212 - 70000 Xkl_220 - Gk_ts_249 <= 0
 R365: - Fkl_212 - 70000 Xkl_220 + Gk_ts_249 <= 0
 R366: Fkl_213 - 70000 Xkl_221 - Gk_ts_250 <= 0
 R367: - Fkl_213 - 70000 Xkl_221 + Gk_ts_250 <= 0
 R368: Fkl_214 - 70000 Xkl_222 - Gk_ts_251 <= 0
 R369: - Fkl_214 - 70000 Xkl_222 + Gk_ts_251 <= 0
 R370: Fkl_215 - 70000 Xkl_223 - Gk_ts_252 <= 0
 R371: - Fkl_215 - 70000 Xkl_223 + Gk_ts_252 <= 0
 R372: Fkl_216 - 70000 Xkl_224 - Gk_ts_253 <= 0
 R373: - Fkl_216 - 70000 Xkl_224 + Gk_ts_253 <= 0
 R374: Fkl_217 - 70000 Xkl_225 - Gk_ts_254 <= 0
 R375: - Fkl_217 - 70000 Xkl_225 + Gk_ts_254 <= 0
 R376: Fkl_218 - 70000 Xkl_226 - Gk_ts_255 <= 0
 R377: - Fkl_218 - 70000 Xkl_226 + Gk_ts_255 <= 0
 R378: Fkl_219 - 70000 Xkl_227 - Gk_ts_256 <= 0
 R379: - Fkl_219 - 70000 Xkl_227 + Gk_ts_256 <= 0
 R380: 70000 Xkl_8 + Gk_ts_37 <= 70000
 R381: 70000 Xkl_8 - Gk_ts_37 <= 70000
 R382: 70000 Xkl_9 + Gk_ts_38 <= 70000
 R383: 70000 Xkl_9 - Gk_ts_38 <= 70000
 R384: 70000 Xkl_10 + Gk_ts_39 <= 70000
 R385: 70000 Xkl_10 - Gk_ts_39 <= 70000
 R386: 70000 Xkl_11 + Gk_ts_40 <= 70000
 R387: 70000 Xkl_11 - Gk_ts_40 <= 70000
 R388: 70000 Xkl_12 + Gk_ts_41 <= 70000
 R389: 70000 Xkl_12 - Gk_ts_41 <= 70000
 R390: 70000 Xkl_13 + Gk_ts_42 <= 70000
 R391: 70000 Xkl_13 - Gk_ts_42 <= 70000
 R392: 70000 Xkl_14 + Gk_ts_43 <= 70000
 R393: 70000 Xkl_14 - Gk_ts_43 <= 70000
 R394: 70000 Xkl_15 + Gk_ts_44 <= 70000
 R395: 70000 Xkl_15 - Gk_ts_44 <= 70000
 R396: 70000 Xkl_61 + Gk_ts_90 <= 70000
 R397: 70000 Xkl_61 - Gk_ts_90 <= 70000
 R398: 70000 Xkl_62 + Gk_ts_91 <= 70000
 R399: 70000 Xkl_62 - Gk_ts_91 <= 70000
 R400: 70000 Xkl_63 + Gk_ts_92 <= 70000
 R401: 70000 Xkl_63 - Gk_ts_92 <= 70000
 R402: 70000 Xkl_64 + Gk_ts_93 <= 70000
 R403: 70000 Xkl_64 - Gk_ts_93 <= 70000
 R404: 70000 Xkl_65 + Gk_ts_94 <= 70000
 R405: 70000 Xkl_65 - Gk_ts_94 <= 70000
 R406: 70000 Xkl_66 + Gk_ts_95 <= 70000
 R407: 70000 Xkl_66 - Gk_ts_95 <= 70000
 R408: 70000 Xkl_67 + Gk_ts_96 <= 70000
 R409: 70000 Xkl_67 - Gk_ts_96 <= 70000
 R410: 70000 Xkl_68 + Gk_ts_97 <= 70000
 R411: 70000 Xkl_68 - Gk_ts_97 <= 70000
 R412: 70000 Xkl_114 + Gk_ts_143 <= 70000
 R413: 70000 Xkl_114 - Gk_ts_143 <= 70000
 R414: 70000 Xkl_115 + Gk_ts_144 <= 70000
 R415: 70000 Xkl_115 - Gk_ts_144 <= 70000
 R416: 70000 Xkl_116 + Gk_ts_145 <= 70000
 R417: 70000 Xkl_116 - Gk_ts_145 <= 70000
 R418: 70000 Xkl_117 + Gk_ts_146 <= 70000
 R419: 70000 Xkl_117 - Gk_ts_146 <= 70000
 R420: 70000 Xkl_118 + Gk_ts_147 <= 70000
 R421: 70000 Xkl_118 - Gk_ts_147 <= 70000
 R422: 70000 Xkl_119 + Gk_ts_148 <= 70000
 R423: 70000 Xkl_119 - Gk_ts_148 <= 70000
 R424: 70000 Xkl_120 + Gk_ts_149 <= 70000
 R425: 70000 Xkl_120 - Gk_ts_149 <= 70000
 R426: 70000 Xkl_121 + Gk_ts_150 <= 70000
 R427: 70000 Xkl_121 - Gk_ts_150 <= 70000
 R428: 70000 Xkl_167 + Gk_ts_196 <= 70000
 R429: 70000 Xkl_167 - Gk_ts_196 <= 70000
 R430: 70000 Xkl_168 + Gk_ts_197 <= 70000
 R431: 70000 Xkl_168 - Gk_ts_197 <= 70000
 R432: 70000 Xkl_169 + Gk_ts_198 <= 70000
 R433: 70000 Xkl_169 - Gk_ts_198 <= 70000
 R434: 70000 Xkl_170 + Gk_ts_199 <= 70000
 R435: 70000 Xkl_170 - Gk_ts_199 <= 70000
 R436: 70000 Xkl_171 + Gk_ts_200 <= 70000
 R437: 70000 Xkl_171 - Gk_ts_200 <= 70000
 R438: 70000 Xkl_172 + Gk_ts_201 <= 70000
 R439: 70000 Xkl_172 - Gk_ts_201 <= 70000
 R440: 70000 Xkl_173 + Gk_ts_202 <= 70000
 R441: 70000 Xkl_173 - Gk_ts_202 <= 70000
 R442: 70000 Xkl_174 + Gk_ts_203 <= 70000
 R443: 70000 Xkl_174 - Gk_ts_203 <= 70000
 R444: 70000 Xkl_220 + Gk_ts_249 <= 70000
 R445: 70000 Xkl_220 - Gk_ts_249 <= 70000
 R446: 70000 Xkl_221 + Gk_ts_250 <= 70000
 R447: 70000 Xkl_221 - Gk_ts_250 <= 70000
 R448: 70000 Xkl_222 + Gk_ts_251 <= 70000
 R449: 70000 Xkl_222 - Gk_ts_251 <= 70000
 R450: 70000 Xkl_223 + Gk_ts_252 <= 70000
 R451: 70000 Xkl_223 - Gk_ts_252 <= 70000
 R452: 70000 Xkl_224 + Gk_ts_253 <= 70000
 R453: 70000 Xkl_224 - Gk_ts_253 <= 70000
 R454: 70000 Xkl_225 + Gk_ts_254 <= 70000
 R455: 70000 Xkl_225 - Gk_ts_254 <= 70000
 R456: 70000 Xkl_226 + Gk_ts_255 <= 70000
 R457: 70000 Xkl_226 - Gk_ts_255 <= 70000
 R458: 70000 Xkl_227 + Gk_ts_256 <= 70000
 R459: 70000 Xkl_227 - Gk_ts_256 <= 70000
Bounds
 Fkl_0 free
 Fkl_1 free
 Fkl_2 free
 Fkl_3 free
 Fkl_4 free
 Fkl_5 free
 Fkl_6 free
 Fkl_7 free
 Rk2_31 free
 Rk2_32 free
 Rk2_33 free
 Rk2_34 free
 Rk2_35 free
 Rk2_36 free
 Gk_ts_37 free
 Gk_ts_38 free
 Gk_ts_39 free
 Gk_ts_40 free
 Gk_ts_41 free
 Gk_ts_42 free
 Gk_ts_43 free
 Gk_ts_44 free
 Fkl_53 free
 Fkl_54 free
 Fkl_55 free
 Fkl_56 free
 Fkl_57 free
 Fkl_58 free
 Fkl_59 free
 Fkl_60 free
 Rk2_84 free
 Rk2_85 free
 Rk2_86 free
 Rk2_87 free
 Rk2_88 free
 Rk2_89 free
 Gk_ts_90 free
 Gk_ts_91 free
 Gk_ts_92 free
 Gk_ts_93 free
 Gk_ts_94 free
 Gk_ts_95 free
 Gk_ts_96 free
 Gk_ts_97 free
 Fkl_106 free
 Fkl_107 free
 Fkl_108 free
 Fkl_109 free
 Fkl_110 free
 Fkl_111 free
 Fkl_112 free
 Fkl_113 free
 Rk2_137 free
 Rk2_138 free
 Rk2_139 free
 Rk2_140 free
 Rk2_141 free
 Rk2_142 free
 Gk_ts_143 free
 Gk_ts_144 free
 Gk_ts_145 free
 Gk_ts_146 free
 Gk_ts_147 free
 Gk_ts_148 free
 Gk_ts_149 free
 Gk_ts_150 free
 Fkl_159 free
 Fkl_160 free
 Fkl_161 free
 Fkl_162 free
 Fkl_163 free
 Fkl_164 free
 Fkl_165 free
 Fkl_166 free
 Rk2_190 free
 Rk2_191 free
 Rk2_192 free
 Rk2_193 free
 Rk2_194 free
 Rk2_195 free
 Gk_ts_196 free
 Gk_ts_197 free
 Gk_ts_198 free
 Gk_ts_199 free
 Gk_ts_200 free
 Gk_ts_201 free
 Gk_ts_202 free
 Gk_ts_203 free
 Fkl_212 free
 Fkl_213 free
 Fkl_214 free
 Fkl_215 free
 Fkl_216 free
 Fkl_217 free
 Fkl_218 free
 Fkl_219 free
 Rk2_243 free
 Rk2_244 free
 Rk2_245 free
 Rk2_246 free
 Rk2_247 free
 Rk2_248 free
 Gk_ts_249 free
 Gk_ts_250 free
 Gk_ts_251 free
 Gk_ts_252 free
 Gk_ts_253 free
 Gk_ts_254 free
 Gk_ts_255 free
 Gk_ts_256 free
Binaries
 Xkl_8 Xkl_9 Xkl_10 Xkl_11 Xkl_12 Xkl_13 Xkl_14 Xkl_15 I_45 I_46 I_47 I_48
 I_49 I_50 I_51 I_52 Xkl_61 Xkl_62 Xkl_63 Xkl_64 Xkl_65 Xkl_66 Xkl_67
 Xkl_68 I_98 I_99 I_100 I_101 I_102 I_103 I_104 I_105 Xkl_114 Xkl_115
 Xkl_116 Xkl_117 Xkl_118 Xkl_119 Xkl_120 Xkl_121 I_151 I_152 I_153 I_154
 I_155 I_156 I_157 I_158 Xkl_167 Xkl_168 Xkl_169 Xkl_170 Xkl_171 Xkl_172
 Xkl_173 Xkl_174 I_204 I_205 I_206 I_207 I_208 I_209 I_210 I_211 Xkl_220
 Xkl_221 Xkl_222 Xkl_223 Xkl_224 Xkl_225 Xkl_226 Xkl_227 I_257 I_258 I_259
 I_260 I_261 I_262 I_263 I_264
End
